
Log started (V11.0.0) Sun Apr 13 16:50:29 2008

Tried aggregator 1 time.
Reduced MIP has 510 rows, 5001 columns, and 10010 nonzeros.
Presolve time =    0.03 sec.
Clique table members: 500.
MIP emphasis: balance optimality and feasibility.
MIP search method: dynamic search.
Parallel mode: none, using 1 thread.
Root relaxation solution time =    0.12 sec.

        Nodes                                         Cuts/
   Node  Left     Objective  IInf  Best Integer     Best Node    ItCnt     Gap

*     0+    0                        25318.0000      482.2465      563   98.10%
*     0+    0                          508.0000      482.2465      563    5.07%
      0     0      483.0000    22      508.0000     Fract: 10      591    4.92%
*     0+    0                          500.0000      483.0000      591    3.40%
      0     0      483.0000    22      500.0000     Covers: 1      593    3.40%
*     0+    0                          499.0000      483.0000      593    3.21%
      0     0      483.0000    22      499.0000     Covers: 1      597    3.21%
*     0+    0                          492.0000      483.0000      597    1.83%
      0     2      483.0000    22      492.0000      483.0000      597    1.83%
*    40+   32                          491.0000      483.0000     2564    1.63%
*    50+   38                          490.0000      483.0000     2941    1.43%
    100    73      486.0000    18      490.0000      483.0000     4898    1.43%
*   174+   95                          489.0000      483.0000     8169    1.23%
*   200+  112                          488.0000      483.0000     8638    1.02%
*   200+  100                          487.0000      483.0000     8638    0.82%
    200   102      483.0000    21      487.0000      483.0000     8638    0.82%
*   220+   88                          486.0000      483.0000     9234    0.62%
    300   144      485.0000    18      486.0000      483.0000    11267    0.62%
*   355+   79                          485.0000      483.0000    12599    0.41%
    400   121      484.0000    18      485.0000      483.0000    12977    0.41%
    500   200      483.0000    18      485.0000      483.0000    14064    0.41%
    600   235      484.0000    23      485.0000      483.0000    16794    0.41%
    700   234      484.0000    24      485.0000      483.0000    19229    0.41%
*   733+  131                          484.0000      483.0000    20231    0.21%
    800   121      483.0000    32      484.0000      483.0000    24908    0.21%
    900   149    infeasible            484.0000      483.0000    32837    0.21%
   1000   199      483.0000    38      484.0000      483.0000    40580    0.21%
Elapsed time =  14.75 sec. (tree size =  0.10 MB, solutions = 13)
   1100   264      483.0000    48      484.0000      483.0000    47441    0.21%
   1200   306      483.0000    32      484.0000      483.0000    58904    0.21%
   1300   346    infeasible            484.0000      483.0000    69090    0.21%
   1400   376      483.0000    31      484.0000      483.0000    83038    0.21%
   1500   378      483.0000    42      484.0000      483.0000   103179    0.21%
   1600   442      483.0000    48      484.0000      483.0000   112891    0.21%
   1700   496      483.0000    38      484.0000      483.0000   124574    0.21%
   1800   560      483.0000    36      484.0000      483.0000   135274    0.21%
   1900   614      483.0000    43      484.0000      483.0000   147939    0.21%
   2000   668    infeasible            484.0000      483.0000   160684    0.21%
Elapsed time =  47.84 sec. (tree size =  0.37 MB, solutions = 13)
   2100   700      483.0000    44      484.0000      483.0000   177699    0.21%
   2200   774      483.0000    39      484.0000      483.0000   186025    0.21%
   2300   828      483.0000    56      484.0000      483.0000   198815    0.21%
   2400   878    infeasible            484.0000      483.0000   212800    0.21%
   2500   912      483.0000    39      484.0000      483.0000   228895    0.21%
   2600   962      483.0000    66      484.0000      483.0000   243166    0.21%
   2700  1006    infeasible            484.0000      483.0000   259179    0.21%
   2800  1038      483.0000    50      484.0000      483.0000   276464    0.21%
   2900  1092      483.0000    53      484.0000      483.0000   290352    0.21%
   3000  1108      483.0000    52      484.0000      483.0000   314325    0.21%
Elapsed time = 112.34 sec. (tree size =  0.65 MB, solutions = 13)
   3100  1146      483.0000    57      484.0000      483.0000   332257    0.21%
   3200  1180      483.0000    65      484.0000      483.0000   353648    0.21%
   3300  1238      483.0000    48      484.0000      483.0000   369041    0.21%
   3400  1298    infeasible            484.0000      483.0000   383822    0.21%
   3500  1344      483.0000    52      484.0000      483.0000   401616    0.21%
   3600  1374      483.0000    53      484.0000      483.0000   422459    0.21%
   3700  1394      483.0000    63      484.0000      483.0000   443726    0.21%
   3800  1432      483.0000    46      484.0000      483.0000   463905    0.21%
   3900  1508    infeasible            484.0000      483.0000   473902    0.21%
   4000  1578    infeasible            484.0000      483.0000   486314    0.21%
Elapsed time = 203.59 sec. (tree size =  0.96 MB, solutions = 13)
   4100  1644      483.0000    51      484.0000      483.0000   499247    0.21%
   4200  1716      483.0000    66      484.0000      483.0000   511955    0.21%
   4300  1746      483.0000    69      484.0000      483.0000   535610    0.21%
   4400  1762      483.0000    36      484.0000      483.0000   562627    0.21%
   4500  1802    infeasible            484.0000      483.0000   580644    0.21%
   4600  1834    infeasible            484.0000      483.0000   602672    0.21%
   4700  1898    infeasible            484.0000      483.0000   616249    0.21%
   4800  1952    infeasible            484.0000      483.0000   631544    0.21%
   4900  1980      483.0000    63      484.0000      483.0000   654114    0.21%
   5000  2044      483.0000    45      484.0000      483.0000   667828    0.21%
Elapsed time = 319.13 sec. (tree size =  1.29 MB, solutions = 13)
*  5033+    1                          483.0000      483.0000   672126    0.00%

Cover cuts applied:  1448
Mixed integer rounding cuts applied:  18
Zero-half cuts applied:  1
Gomory fractional cuts applied:  8

Solution pool: 14 solutions saved.

MIP - Integer optimal solution:  Objective = 4.8300000000e+002
Solution time =  322.81 sec.  Iterations = 672126  Nodes = 5033


Incumbent solution
Variable Name           Solution Value
Cmax                        483.000000
X_1_5                         1.000000
X_2_5                         1.000000
X_3_1                         1.000000
X_4_4                         1.000000
X_5_8                         1.000000
X_6_8                         1.000000
X_7_1                         1.000000
X_8_10                        1.000000
X_9_3                         1.000000
X_10_5                        1.000000
X_11_1                        1.000000
X_12_5                        1.000000
X_13_1                        1.000000
X_14_4                        1.000000
X_15_1                        1.000000
X_16_8                        1.000000
X_17_4                        1.000000
X_18_1                        1.000000
X_19_5                        1.000000
X_20_2                        1.000000
X_21_2                        1.000000
X_22_5                        1.000000
X_23_8                        1.000000
X_24_4                        1.000000
X_25_4                        1.000000
X_26_1                        1.000000
X_27_1                        1.000000
X_28_10                       1.000000
X_29_6                        1.000000
X_30_4                        1.000000
X_31_8                        1.000000
X_32_7                        1.000000
X_33_2                        1.000000
X_34_8                        1.000000
X_35_1                        1.000000
X_36_2                        1.000000
X_37_9                        1.000000
X_38_7                        1.000000
X_39_6                        1.000000
X_40_4                        1.000000
X_41_1                        1.000000
X_42_4                        1.000000
X_43_6                        1.000000
X_44_4                        1.000000
X_45_7                        1.000000
X_46_3                        1.000000
X_47_2                        1.000000
X_48_8                        1.000000
X_49_9                        1.000000
X_50_5                        1.000000
X_51_7                        1.000000
X_52_1                        1.000000
X_53_10                       1.000000
X_54_10                       1.000000
X_55_8                        1.000000
X_56_5                        1.000000
X_57_3                        1.000000
X_58_2                        1.000000
X_59_4                        1.000000
X_60_9                        1.000000
X_61_2                        1.000000
X_62_1                        1.000000
X_63_1                        1.000000
X_64_9                        1.000000
X_65_6                        1.000000
X_66_5                        1.000000
X_67_3                        1.000000
X_68_1                        1.000000
X_69_3                        1.000000
X_70_2                        1.000000
X_71_7                        1.000000
X_72_1                        1.000000
X_73_10                       1.000000
X_74_1                        1.000000
X_75_6                        1.000000
X_76_10                       1.000000
X_77_9                        1.000000
X_78_9                        1.000000
X_79_4                        1.000000
X_80_1                        1.000000
X_81_2                        1.000000
X_82_8                        1.000000
X_83_8                        1.000000
X_84_10                       1.000000
X_85_6                        1.000000
X_86_8                        1.000000
X_87_9                        1.000000
X_88_5                        1.000000
X_89_5                        1.000000
X_90_3                        1.000000
X_91_7                        1.000000
X_92_9                        1.000000
X_93_7                        1.000000
X_94_4                        1.000000
X_95_1                        1.000000
X_96_10                       1.000000
X_97_5                        1.000000
X_98_5                        1.000000
X_99_6                        1.000000
X_100_1                       1.000000
X_101_3                       1.000000
X_102_3                       1.000000
X_103_9                       1.000000
X_104_9                       1.000000
X_105_2                       1.000000
X_106_8                       1.000000
X_107_4                       1.000000
X_108_9                       1.000000
X_109_3                       1.000000
X_110_5                       1.000000
X_111_10                      1.000000
X_112_8                       1.000000
X_113_9                       1.000000
X_114_5                       1.000000
X_115_8                       1.000000
X_116_2                       1.000000
X_117_7                       1.000000
X_118_3                       1.000000
X_119_10                      1.000000
X_120_2                       1.000000
X_121_5                       1.000000
X_122_2                       1.000000
X_123_6                       1.000000
X_124_1                       1.000000
X_125_1                       1.000000
X_126_7                       1.000000
X_127_5                       1.000000
X_128_1                       1.000000
X_129_1                       1.000000
X_130_4                       1.000000
X_131_10                      1.000000
X_132_8                       1.000000
X_133_4                       1.000000
X_134_1                       1.000000
X_135_7                       1.000000
X_136_8                       1.000000
X_137_3                       1.000000
X_138_4                       1.000000
X_139_5                       1.000000
X_140_3                       1.000000
X_141_4                       1.000000
X_142_2                       1.000000
X_143_9                       1.000000
X_144_5                       1.000000
X_145_1                       1.000000
X_146_4                       1.000000
X_147_5                       1.000000
X_148_2                       1.000000
X_149_2                       1.000000
X_150_2                       1.000000
X_151_10                      1.000000
X_152_10                      1.000000
X_153_4                       1.000000
X_154_10                      1.000000
X_155_9                       1.000000
X_156_7                       1.000000
X_157_1                       1.000000
X_158_3                       1.000000
X_159_6                       1.000000
X_160_6                       1.000000
X_161_3                       1.000000
X_162_3                       1.000000
X_163_5                       1.000000
X_164_7                       1.000000
X_165_7                       1.000000
X_166_5                       1.000000
X_167_10                      1.000000
X_168_10                      1.000000
X_169_1                       1.000000
X_170_4                       1.000000
X_171_6                       1.000000
X_172_5                       1.000000
X_173_3                       1.000000
X_174_9                       1.000000
X_175_1                       1.000000
X_176_4                       1.000000
X_177_1                       1.000000
X_178_8                       1.000000
X_179_6                       1.000000
X_180_6                       1.000000
X_181_5                       1.000000
X_182_4                       1.000000
X_183_4                       1.000000
X_184_4                       1.000000
X_185_7                       1.000000
X_186_4                       1.000000
X_187_10                      1.000000
X_188_7                       1.000000
X_189_2                       1.000000
X_190_7                       1.000000
X_191_3                       1.000000
X_192_1                       1.000000
X_193_6                       1.000000
X_194_3                       1.000000
X_195_9                       1.000000
X_196_7                       1.000000
X_197_10                      1.000000
X_198_10                      1.000000
X_199_9                       1.000000
X_200_9                       1.000000
X_201_10                      1.000000
X_202_2                       1.000000
X_203_10                      1.000000
X_204_6                       1.000000
X_205_4                       1.000000
X_206_2                       1.000000
X_207_3                       1.000000
X_208_1                       1.000000
X_209_8                       1.000000
X_210_1                       1.000000
X_211_1                       1.000000
X_212_5                       1.000000
X_213_7                       1.000000
X_214_2                       1.000000
X_215_5                       1.000000
X_216_7                       1.000000
X_217_10                      1.000000
X_218_6                       1.000000
X_219_2                       1.000000
X_220_4                       1.000000
X_221_3                       1.000000
X_222_4                       1.000000
X_223_3                       1.000000
X_224_7                       1.000000
X_225_6                       1.000000
X_226_3                       1.000000
X_227_10                      1.000000
X_228_4                       1.000000
X_229_2                       1.000000
X_230_9                       1.000000
X_231_3                       1.000000
X_232_2                       1.000000
X_233_8                       1.000000
X_234_1                       1.000000
X_235_5                       1.000000
X_236_6                       1.000000
X_237_8                       1.000000
X_238_7                       1.000000
X_239_7                       1.000000
X_240_3                       1.000000
X_241_8                       1.000000
X_242_4                       1.000000
X_243_10                      1.000000
X_244_6                       1.000000
X_245_2                       1.000000
X_246_1                       1.000000
X_247_4                       1.000000
X_248_5                       1.000000
X_249_6                       1.000000
X_250_3                       1.000000
X_251_10                      1.000000
X_252_8                       1.000000
X_253_10                      1.000000
X_254_9                       1.000000
X_255_1                       1.000000
X_256_5                       1.000000
X_257_7                       1.000000
X_258_2                       1.000000
X_259_8                       1.000000
X_260_7                       1.000000
X_261_6                       1.000000
X_262_9                       1.000000
X_263_7                       1.000000
X_264_7                       1.000000
X_265_4                       1.000000
X_266_7                       1.000000
X_267_10                      1.000000
X_268_1                       1.000000
X_269_6                       1.000000
X_270_5                       1.000000
X_271_3                       1.000000
X_272_8                       1.000000
X_273_2                       1.000000
X_274_10                      1.000000
X_275_5                       1.000000
X_276_7                       1.000000
X_277_3                       1.000000
X_278_7                       1.000000
X_279_3                       1.000000
X_280_7                       1.000000
X_281_7                       1.000000
X_282_2                       1.000000
X_283_7                       1.000000
X_284_4                       1.000000
X_285_8                       1.000000
X_286_8                       1.000000
X_287_6                       1.000000
X_288_2                       1.000000
X_289_4                       1.000000
X_290_3                       1.000000
X_291_5                       1.000000
X_292_10                      1.000000
X_293_7                       1.000000
X_294_9                       1.000000
X_295_4                       1.000000
X_296_1                       1.000000
X_297_10                      1.000000
X_298_8                       1.000000
X_299_4                       1.000000
X_300_9                       1.000000
X_301_7                       1.000000
X_302_2                       1.000000
X_303_7                       1.000000
X_304_7                       1.000000
X_305_9                       1.000000
X_306_10                      1.000000
X_307_1                       1.000000
X_308_6                       1.000000
X_309_8                       1.000000
X_310_4                       1.000000
X_311_5                       1.000000
X_312_2                       1.000000
X_313_6                       1.000000
X_314_7                       1.000000
X_315_2                       1.000000
X_316_7                       1.000000
X_317_9                       1.000000
X_318_3                       1.000000
X_319_4                       1.000000
X_320_4                       1.000000
X_321_5                       1.000000
X_322_9                       1.000000
X_323_7                       1.000000
X_324_10                      1.000000
X_325_2                       1.000000
X_326_2                       1.000000
X_327_6                       1.000000
X_328_5                       1.000000
X_329_3                       1.000000
X_330_7                       1.000000
X_331_4                       1.000000
X_332_1                       1.000000
X_333_4                       1.000000
X_334_7                       1.000000
X_335_6                       1.000000
X_336_3                       1.000000
X_337_4                       1.000000
X_338_9                       1.000000
X_339_6                       1.000000
X_340_6                       1.000000
X_341_2                       1.000000
X_342_8                       1.000000
X_343_9                       1.000000
X_344_3                       1.000000
X_345_1                       1.000000
X_346_1                       1.000000
X_347_6                       1.000000
X_348_4                       1.000000
X_349_10                      1.000000
X_350_7                       1.000000
X_351_4                       1.000000
X_352_5                       1.000000
X_353_1                       1.000000
X_354_8                       1.000000
X_355_2                       1.000000
X_356_6                       1.000000
X_357_8                       1.000000
X_358_2                       1.000000
X_359_10                      1.000000
X_360_5                       1.000000
X_361_6                       1.000000
X_362_5                       1.000000
X_363_2                       1.000000
X_364_6                       1.000000
X_365_10                      1.000000
X_366_8                       1.000000
X_367_7                       1.000000
X_368_7                       1.000000
X_369_1                       1.000000
X_370_5                       1.000000
X_371_5                       1.000000
X_372_3                       1.000000
X_373_2                       1.000000
X_374_6                       1.000000
X_375_3                       1.000000
X_376_2                       1.000000
X_377_9                       1.000000
X_378_5                       1.000000
X_379_8                       1.000000
X_380_3                       1.000000
X_381_5                       1.000000
X_382_10                      1.000000
X_383_3                       1.000000
X_384_10                      1.000000
X_385_7                       1.000000
X_386_4                       1.000000
X_387_7                       1.000000
X_388_8                       1.000000
X_389_9                       1.000000
X_390_10                      1.000000
X_391_2                       1.000000
X_392_4                       1.000000
X_393_6                       1.000000
X_394_8                       1.000000
X_395_10                      1.000000
X_396_9                       1.000000
X_397_9                       1.000000
X_398_4                       1.000000
X_399_9                       1.000000
X_400_10                      1.000000
X_401_3                       1.000000
X_402_5                       1.000000
X_403_10                      1.000000
X_404_10                      1.000000
X_405_7                       1.000000
X_406_9                       1.000000
X_407_6                       1.000000
X_408_1                       1.000000
X_409_4                       1.000000
X_410_6                       1.000000
X_411_8                       1.000000
X_412_8                       1.000000
X_413_8                       1.000000
X_414_9                       1.000000
X_415_3                       1.000000
X_416_9                       1.000000
X_417_1                       1.000000
X_418_10                      1.000000
X_419_7                       1.000000
X_420_3                       1.000000
X_421_4                       1.000000
X_422_10                      1.000000
X_423_6                       1.000000
X_424_10                      1.000000
X_425_8                       1.000000
X_426_4                       1.000000
X_427_8                       1.000000
X_428_8                       1.000000
X_429_8                       1.000000
X_430_4                       1.000000
X_431_3                       1.000000
X_432_1                       1.000000
X_433_4                       1.000000
X_434_6                       1.000000
X_435_9                       1.000000
X_436_3                       1.000000
X_437_5                       1.000000
X_438_4                       1.000000
X_439_9                       1.000000
X_440_5                       1.000000
X_441_3                       1.000000
X_442_9                       1.000000
X_443_10                      1.000000
X_444_8                       1.000000
X_445_5                       1.000000
X_446_5                       1.000000
X_447_8                       1.000000
X_448_7                       1.000000
X_449_10                      1.000000
X_450_6                       1.000000
X_451_6                       1.000000
X_452_2                       1.000000
X_453_6                       1.000000
X_454_6                       1.000000
X_455_1                       1.000000
X_456_3                       1.000000
X_457_9                       1.000000
X_458_10                      1.000000
X_459_9                       1.000000
X_460_5                       1.000000
X_461_3                       1.000000
X_462_8                       1.000000
X_463_4                       1.000000
X_464_5                       1.000000
X_465_2                       1.000000
X_466_6                       1.000000
X_467_9                       1.000000
X_468_8                       1.000000
X_469_8                       1.000000
X_470_1                       1.000000
X_471_4                       1.000000
X_472_6                       1.000000
X_473_7                       1.000000
X_474_5                       1.000000
X_475_8                       1.000000
X_476_2                       1.000000
X_477_8                       1.000000
X_478_2                       1.000000
X_479_1                       1.000000
X_480_5                       1.000000
X_481_8                       1.000000
X_482_7                       1.000000
X_483_1                       1.000000
X_484_9                       1.000000
X_485_10                      1.000000
X_486_9                       1.000000
X_487_5                       1.000000
X_488_6                       1.000000
X_489_3                       1.000000
X_490_8                       1.000000
X_491_5                       1.000000
X_492_8                       1.000000
X_493_7                       1.000000
X_494_4                       1.000000
X_495_7                       1.000000
X_496_10                      1.000000
X_497_5                       1.000000
X_498_4                       1.000000
X_499_8                       1.000000
X_500_6                       1.000000
All other variables in the range 1-5001 are 0.
